HmaxDs = 0.500000
HmaxUB_percent = 1.706142
HmaxUB_real = 7589.482643
FTnetDs = 0.500000
FTnetUB_percent = 1.372827
FTnetUB_real = 19592.575096
TIFgap = 0.600000
LimCIPF = 68.91785992
SCIP version 1.1.0 [precision: 8 byte] [memory: block] [mode: optimized] [LP solver: Clp 1.8.2]
Copyright (c) 2002-2008 Konrad-Zuse-Zentrum fuer Informationstechnik Berlin (ZIB)

reading user parameter file </home/fabio/docs/hierarquia/models/scip.set>

read problem <data.N30.I1.s1.backbone0.T5.GL2.W2.TIFgap0.6.mps.gz>
============

original problem has 335 variables (170 bin, 0 int, 0 impl, 165 cont) and 142 constraints

solve problem
=============

presolving:
(round 1) 3 del vars, 3 del conss, 4 chg bounds, 0 chg sides, 32 chg coeffs, 0 upgd conss, 0 impls, 40 clqs
(round 2) 9 del vars, 3 del conss, 8 chg bounds, 1 chg sides, 32 chg coeffs, 0 upgd conss, 0 impls, 40 clqs
(round 3) 75 del vars, 20 del conss, 74 chg bounds, 3 chg sides, 32 chg coeffs, 0 upgd conss, 0 impls, 24 clqs
(round 4) 82 del vars, 22 del conss, 81 chg bounds, 3 chg sides, 32 chg coeffs, 0 upgd conss, 0 impls, 22 clqs
(round 5) 99 del vars, 26 del conss, 106 chg bounds, 7 chg sides, 36 chg coeffs, 0 upgd conss, 0 impls, 18 clqs
(round 6) 99 del vars, 27 del conss, 106 chg bounds, 7 chg sides, 36 chg coeffs, 19 upgd conss, 0 impls, 18 clqs
(round 7) 100 del vars, 27 del conss, 106 chg bounds, 7 chg sides, 36 chg coeffs, 19 upgd conss, 444 impls, 18 clqs
presolving (8 rounds):
 100 deleted vars, 27 deleted constraints, 106 tightened bounds, 0 added holes, 7 changed sides, 36 changed coefficients
 444 implications, 18 cliques
presolved problem has 235 variables (75 bin, 0 int, 0 impl, 160 cont) and 115 constraints
      1 constraints of type <knapsack>
     18 constraints of type <setppc>
     96 constraints of type <linear>
Presolving Time: 0.03

 time | node  | left  |LP iter| mem |mdpt |frac |vars |cons |ccons|cols |rows |cuts |confs|strbr|  dualbound   | primalbound  |  gap   
  0.0s|     1 |     0 |    85 | 813k|   0 |  30 | 235 | 115 | 115 | 235 | 115 |   0 |   0 |   0 | 4.423148e+01 |      --      |    Inf 
  0.2s|     1 |     0 |  1045 | 886k|   0 |  39 | 235 | 115 | 115 | 235 | 160 |  45 |   0 |   0 | 5.276967e+01 |      --      |    Inf 
  0.4s|     1 |     0 |  1199 | 949k|   0 |  38 | 235 | 115 | 115 | 235 | 203 |  88 |   0 |   0 | 5.929123e+03 |      --      |    Inf 
  0.6s|     1 |     0 |  1320 |1000k|   0 |  34 | 235 | 115 | 115 | 235 | 231 | 116 |   0 |   0 | 9.740579e+03 |      --      |    Inf 
  0.7s|     1 |     0 |  1426 |1048k|   0 |  38 | 235 | 115 | 115 | 235 | 257 | 142 |   0 |   0 | 1.063468e+04 |      --      |    Inf 
  0.9s|     1 |     0 |  1546 |1080k|   0 |  43 | 235 | 115 | 115 | 235 | 276 | 161 |   0 |   0 | 1.112380e+04 |      --      |    Inf 
  1.1s|     1 |     0 |  1624 |1109k|   0 |  42 | 235 | 115 | 115 | 235 | 289 | 174 |   0 |   0 | 1.130408e+04 |      --      |    Inf 
  1.4s|     1 |     0 |  1698 |1124k|   0 |  41 | 235 | 115 | 115 | 235 | 303 | 188 |   0 |   0 | 1.136996e+04 |      --      |    Inf 
  1.7s|     1 |     0 |  1785 |1148k|   0 |  45 | 235 | 115 | 115 | 235 | 321 | 206 |   0 |   0 | 1.180777e+04 |      --      |    Inf 
  1.9s|     1 |     0 |  1937 |1170k|   0 |  44 | 235 | 115 | 115 | 235 | 337 | 222 |   0 |   0 | 1.210510e+04 |      --      |    Inf 
  2.1s|     1 |     0 |  2096 |1185k|   0 |  47 | 235 | 115 | 115 | 235 | 346 | 231 |   0 |   0 | 1.221954e+04 |      --      |    Inf 
  2.1s|     1 |     0 |  2131 |1185k|   0 |  46 | 235 | 115 | 115 | 235 | 350 | 235 |   0 |   0 | 1.222336e+04 |      --      |    Inf 
  2.2s|     1 |     0 |  2179 |1186k|   0 |  46 | 235 | 115 | 115 | 235 | 351 | 236 |   0 |   0 | 1.223334e+04 |      --      |    Inf 
  2.2s|     1 |     0 |  2180 |1186k|   0 |  46 | 235 | 115 | 115 | 235 | 352 | 237 |   0 |   0 | 1.223334e+04 |      --      |    Inf 
  2.6s|     1 |     2 |  2214 |1189k|   0 |  46 | 235 | 115 | 115 | 235 | 352 | 237 |   0 |  20 | 1.223334e+04 |      --      |    Inf 
 time | node  | left  |LP iter| mem |mdpt |frac |vars |cons |ccons|cols |rows |cuts |confs|strbr|  dualbound   | primalbound  |  gap   
* 3.4s|    11 |     7 |  2887 |1218k|   9 |   - | 235 | 115 |  55 | 235 | 193 | 237 |   0 | 124 | 1.245873e+04 | 1.865977e+04 |  49.77%

SCIP Status        : solving was interrupted [solution limit reached]
Solving Time (sec) : 3.38
Solving Nodes      : 11
Primal Bound       : +1.86597698995474e+04 (1 solutions)
Dual Bound         : +1.24587269514254e+04
Gap                : 49.77 %

primal solution:
================

objective value:                     18659.7698995474
b[1,1,3,1]                                          1 	(obj:0)
b[1,1,3,2]                          0.999999999999997 	(obj:0)
b[2,2,3,1]                                          1 	(obj:0)
b[4,2,3,2]                                          1 	(obj:0)
b[3,3,1,1]                          0.999999999999997 	(obj:0)
b[4,3,1,2]                           1.00000000004661 	(obj:0)
b[1,3,2,1]                          0.999999999954104 	(obj:0)
b[4,3,2,2]                                          1 	(obj:0)
b[5,3,4,1]                                          1 	(obj:0)
b[3,3,4,2]                                          1 	(obj:0)
b[3,3,5,1]                                          1 	(obj:0)
b[1,3,5,2]                                          1 	(obj:0)
b[4,4,3,1]                                          1 	(obj:0)
b[4,4,3,2]                                          1 	(obj:0)
b[5,5,3,1]                                          1 	(obj:0)
b[1,5,3,2]                                          1 	(obj:0)
h[1,3]                              0.999999999999997 	(obj:0)
h[2,3]                                              1 	(obj:0)
h[3,4]                                              1 	(obj:0)
h[3,5]                                              1 	(obj:0)
qw[3,1,2,1]                              0.2152760678 	(obj:0)
qw[1,2,3,1]                              0.2336479328 	(obj:0)
qw[3,1,3,1]                         0.465062460099999 	(obj:0)
qw[1,2,4,1]                         0.295370397377519 	(obj:0)
qw[4,1,4,2]                          0.53650920678876 	(obj:0)
qw[1,2,5,1]                          0.20089490339078 	(obj:0)
qw[4,1,5,2]                         0.395158428477863 	(obj:0)
qw[1,2,1,1]                         0.243468649988826 	(obj:0)
qw[3,4,1,2]                              0.3230778667 	(obj:0)
qw[3,5,1,1]                         0.143327643288826 	(obj:0)
qw[1,3,1,2]                         0.756531349999999 	(obj:0)
qw[3,4,2,2]                              0.2939665197 	(obj:0)
qw[3,5,2,1]                              0.1799368882 	(obj:0)
qw[2,3,2,1]                                         1 	(obj:0)
qw[3,5,4,1]                              0.1887247574 	(obj:0)
qw[4,3,4,1]                         0.463490793217284 	(obj:0)
qw[4,3,5,1]                         0.281434359022137 	(obj:0)
qw[3,4,3,2]                         0.344327595932466 	(obj:0)
qw[5,4,5,1]                                         1 	(obj:0)
qw[3,5,3,1]                               0.190609944 	(obj:0)
CIPF                                 67.3468999999999 	(obj:0)
CustoTrafRetr                        18592.4229992681 	(obj:0)
TotalTrancpt                         8.99999999999999 	(obj:0)
CustoTotal                           18659.7698992681 	(obj:0)
Obj                                  18659.7698992681 	(obj:1)

Statistics
==========

SCIP Status        : solving was interrupted [solution limit reached]
Solving Time       :       3.38
Original Problem   :
  Problem name     : labtel
  Variables        : 335 (170 binary, 0 integer, 0 implicit integer, 165 continuous)
  Constraints      : 142 initial, 142 maximal
Presolved Problem  :
  Problem name     : t_labtel
  Variables        : 235 (75 binary, 0 integer, 0 implicit integer, 160 continuous)
  Constraints      : 115 initial, 115 maximal
Presolvers         :       Time  FixedVars   AggrVars   ChgTypes  ChgBounds   AddHoles    DelCons   ChgSides   ChgCoefs
  trivial          :       0.00          0          0          0          0          0          0          0          0
  dualfix          :       0.00          0          0          0          0          0          0          0          0
  boundshift       :       0.00          0          0          0          0          0          0          0          0
  inttobinary      :       0.00          0          0          0          0          0          0          0          0
  implics          :       0.00          0          0          0          0          0          0          0          0
  probing          :       0.02          1          0          0          0          0          0          0          0
  knapsack         :       0.00          0          0          0          0          0          0          0          0
  setppc           :       0.00          0          0          0          0          0          0          0          0
  linear           :       0.00         94          5          0        106          0         27          7         36
  root node        :          -          0          -          -          0          -          -          -          -
Constraints        :     Number  #Separate #Propagate    #EnfoLP    #EnfoPS    Cutoffs    DomReds       Cuts      Conss   Children
  integral         :          0          0          0         12          0          0          5          0          0         18
  knapsack         :          1         14        307          1          0          0          0          0          0          0
  setppc           :         18         14        307          1          0          0         61          0          0          0
  linear           :         96         14        307          1          0          1        254          0          0          0
  countsols        :          0          0          0          1          0          0          0          0          0          0
Constraint Timings :  TotalTime   Separate  Propagate     EnfoLP     EnfoPS
  integral         :       1.14       0.00       0.00       1.14       0.00
  knapsack         :       0.00       0.00       0.00       0.00       0.00
  setppc           :       0.00       0.00       0.00       0.00       0.00
  linear           :       0.02       0.00       0.02       0.00       0.00
  countsols        :       0.00       0.00       0.00       0.00       0.00
Propagators        :       Time      Calls    Cutoffs    DomReds
  rootredcost      :       0.00          0          0          0
  pseudoobj        :       0.00         46          0          0
Conflict Analysis  :       Time      Calls    Success  Conflicts   Literals    Reconvs ReconvLits   LP Iters
  propagation      :       0.00          0          0          0        0.0          0        0.0          -
  infeasible LP    :       0.00          1          0          0        0.0          0        0.0          0
  bound exceed. LP :       0.00          0          0          0        0.0          0        0.0          0
  strong branching :       0.00          0          0          0        0.0          0        0.0          0
  pseudo solution  :       0.00          0          0          0        0.0          0        0.0          -
  applied globally :          -          -          -          0        0.0          -          -          -
  applied locally  :          -          -          -          0        0.0          -          -          -
Separators         :       Time      Calls    Cutoffs    DomReds       Cuts      Conss
  cut pool         :       0.00         13          -          -         58          -    (maximal pool size: 487)
  redcost          :       0.00         25          0          0          0          0
  impliedbounds    :       0.01         14          0          0         14          0
  intobj           :       0.00          0          0          0          0          0
  gomory           :       0.04         14          0          0         41          0
  strongcg         :       0.03         14          0          0          1          0
  cmir             :       0.87         10          0          0        359          0
  flowcover        :       0.86         10          0          0        153          0
  clique           :       0.00         14          0          0          0          0
  zerohalf         :       0.00          0          0          0          0          0
  mcf              :       0.00          0          0          0          0          0
Pricers            :       Time      Calls       Vars
  problem variables:       0.00          0          0
Branching Rules    :       Time      Calls    Cutoffs    DomReds       Cuts      Conss   Children
  relpscost        :       1.14         11          0          5          0          0         18
  pscost           :       0.00          0          0          0          0          0          0
  inference        :       0.00          0          0          0          0          0          0
  mostinf          :       0.00          0          0          0          0          0          0
  leastinf         :       0.00          0          0          0          0          0          0
  fullstrong       :       0.00          0          0          0          0          0          0
  allfullstrong    :       0.00          0          0          0          0          0          0
  random           :       0.00          0          0          0          0          0          0
Primal Heuristics  :       Time      Calls      Found
  LP solutions     :       0.00          -          1
  pseudo solutions :       0.00          -          0
  oneopt           :       0.00          0          0
  coefdiving       :       0.00          0          0
  pscostdiving     :       0.00          0          0
  fracdiving       :       0.00          0          0
  veclendiving     :       0.00          0          0
  objpscostdiving  :       0.00          0          0
  rootsoldiving    :       0.00          0          0
  linesearchdiving :       0.00          0          0
  guideddiving     :       0.00          0          0
  simplerounding   :       0.00          0          0
  rounding         :       0.01         24          0
  shifting         :       0.01         14          0
  intshifting      :       0.00          1          0
  fixandinfer      :       0.00          0          0
  feaspump         :       0.09          1          0
  intdiving        :       0.00          0          0
  actconsdiving    :       0.00          0          0
  octane           :       0.00          0          0
  rens             :       0.01          0          0
  rins             :       0.00          0          0
  localbranching   :       0.00          0          0
  mutation         :       0.00          0          0
  crossover        :       0.00          0          0
  dins             :       0.00          0          0
LP                 :       Time      Calls Iterations  Iter/call   Iter/sec
  primal LP        :       0.00          0          0       0.00          -
  dual LP          :       0.24         27       1954      72.37    8141.67
  barrier LP       :       0.00          0          0       0.00          -
  diving/probing LP:       0.09         99        933       9.42   10366.67
  strong branching :       1.14        124      11536      93.03   10119.30
    (at root node) :          -         20       3084     154.20          -
  conflict analysis:       0.00          0          0       0.00          -
B&B Tree           :
  number of runs   :          1
  nodes            :         11
  nodes (total)    :         11
  nodes left       :          7
  max depth        :          9
  max depth (total):          9
  backtracks       :          0 (0.0%)
  delayed cutoffs  :          0
  repropagations   :          0 (0 domain reductions, 0 cutoffs)
  avg switch length:       1.09
  switching time   :       0.00
Solution           :
  Solutions found  :          1 (1 improvements)
  Primal Bound     : +1.86597698995474e+04   (in run 1, after 11 nodes, 3.38 seconds, depth 9, found by <relaxation>)
  Dual Bound       : +1.24587269514254e+04
  Gap              :      49.77 %
  Root Dual Bound  : +1.22333448648225e+04
Reading model section from /home/fabio/docs/hierarquia/models/calc-cong.mod...
129 lines were read
Reading data section from data.N30.I1.s1.backbone0.T5.GL2.W2.TIFgap0.6.sol...
84 lines were read

Display statement at line 45
A[1] = 6472.743
A[2] = 7025.63
A[3] = 7177.38
A[4] = 8896.66
A[5] = 5410.64

Display statement at line 48
LigLog[1,2] = 1
LigLog[1,3] = 1
LigLog[2,3] = 1
LigLog[3,1] = 1
LigLog[3,4] = 1
LigLog[3,5] = 1
LigLog[4,1] = 1
LigLog[4,3] = 1
LigLog[5,4] = 1

Display statement at line 51
TrafMedio[1,2] = 6967.66999946966
TrafMedio[1,3] = 4896.83299999304
TrafMedio[2,3] = 7025.63
TrafMedio[3,1] = 4850.38000009024
TrafMedio[3,4] = 6627.87000043103
TrafMedio[3,5] = 5238.99299968582
TrafMedio[4,1] = 6911.19999912875
TrafMedio[4,3] = 5646.26000068402
TrafMedio[5,4] = 5410.64

Congestionamento: 7025.63

MTB: 4448.33

Model has been successfully generated
